100
150
100
100
100
99
99
98
97
96
95
95
95
94
94
91
91
90
90
88
86
84
83
83
79
78
77
74
74
72
72
70
69
69
69
69
68
68
68
67
67
67
66
66
65
64
63
63
63
63
63
62
62
61
60
60
59
59
59
59
57
55
55
55
53
53
52
52
51
50
49
48
47
47
45
44
44
43
43
42
42
41
41
38
37
36
36
36
36
34
34
29
29
28
27
25
24
23
23
22
22
20
